# LAMMPS Script - Polymer in Nanofluidic Channel, No Fluid (clark_bowman@brown.edu)
# LAMMPS version Feb. 25, 2014





# SEC: This section defines the physical properties of the polymer. All units are LJ unless specified.

# 	VAR: harmonic bond coefficient between monomers in-chain
variable bond_strength equal 500

# 	VAR: length of monomer-monomer bonds
variable bond_length equal 1

# 	VAR: harmonic angle coefficient in-chain
variable angle_strength equal 0.5

# 	VAR: angle potentials are centered at this position in degrees (180.0 = straight)
variable angle_neutral equal 180

# 	VAR: LJ epsilon coefficient for monomers (energy scaling)
variable lj_epsilon_polymer equal 0.001

# 	VAR: LJ sigma coefficient for monomers (distance scaling)
variable lj_sigma_polymer equal 0.3

# 	VAR: cutoff radius for monomers
variable lj_cutoff_polymer equal 1


# SEC: This section defines properties of the LJ reflecting walls.

# 	VAR: coefficient epsilon for wall potential (energy scaling)
variable wall_coefficient equal 0.001

# 	VAR: coefficient sigma for wall potential (distance scaling)
variable wall_radius equal 0.3

# 	VAR: cutoff radius for wall potential
variable lj_cutoff equal 0.5


# SEC: This section defines properties of the fluid.

# 	VAR: enforced fluid flow velocity (critical velocity is NOT the same for BD simulation)
variable flow_velocity equal 0.2


# SEC: This section defines parameters of the simulation proper.

# 	VAR: thermostat temperature
variable temperature equal 1

# 	VAR: total number of steps to run (use arbitrarily large number to run until process is killed)
variable run_length equal 500000000

# 	VAR: if dump is used, interval between position dumps of entire system
variable dump_interval equal 10000


# SEC: This section initializes the simulation.

# 	Define units, atom style, log path, and neighbor settings; and read configuration data for the polymer.
# 	Configuration data for the polymer in polymer_data must be generated separately.

units lj
atom_style molecular
log polymer_nofluid.log
read_data polymer.dat
neighbor 0.3 bin
neigh_modify delay 5


# 	Define bond, angle, pairwise interactions according to the values of the variables above.
# 	For pairwise interactions, type 1 is polymer, type 2 is fluid, and type 3 is tracked fluid.
#   For the no-fluid simulation, types 2 and 3 are not used.

bond_style harmonic
bond_coeff 1 ${bond_strength} ${bond_length}
angle_style harmonic
angle_coeff 1 ${angle_strength} ${angle_neutral}
dihedral_style none
pair_style lj/cut ${lj_cutoff_polymer}
pair_coeff * * ${lj_epsilon_polymer} ${lj_sigma_polymer}


# SEC: This section initializes the geometry.

# 	Define unsafe regions where LJ walls will be imposed. This must be done as a series of boxes because of limitations of fix wall/region,
# 	which does not handle internal corners well. `plates' is the upper and lower boundary, and the other blocks shape out the channel.
# 	Final region defines where the force from the fluid will be applied.

region plates block -1 801 -1 81 -4.1 4.1 units box side in
region block1 block -1 801 -1 20 -5 0 units box side out
region block2 block -1 801 60 81 -5 0 units box side out
region block3 block -1 20 20 60 -5 0 units box side out
region block4 block 780 801 20 60 -5 0 units box side out
region block5 block 60 100 20 60 -5 0 units box side out
region block6 block 140 180 20 60 -5 0 units box side out
region block7 block 220 260 20 60 -5 0 units box side out
region block8 block 300 340 20 60 -5 0 units box side out
region block9 block 380 420 20 60 -5 0 units box side out
region block10 block 460 500 20 60 -5 0 units box side out
region block11 block 540 580 20 60 -5 0 units box side out
region block12 block 620 660 20 60 -5 0 units box side out
region block13 block 700 740 20 60 -5 0 units box side out
region flow block -1 801 -1 81 0 4


# SEC: This section defines LAMMPS computes that will be used in the simulation.

# 	This compute finds in each step the average x flow rate of all particles.
# 	By subtracting off the target velocity, a restoring force will be imposed.

compute atom_vx all property/atom vx
variable diff atom '(v_flow_velocity-c_atom_vx)*0.1'

# 	Intermediate compute used in the following computes.

compute atom_x all property/atom xu

# 	Computes for gathering data: average polymer x position, radius of gyration, min/max x value.

compute xpos all reduce ave c_atom_x
compute xsq all gyration
compute xmin all reduce min c_atom_x
compute xmax all reduce max c_atom_x


# SEC: This section defines fixes to impose forces in the simulation.

# 	NVE integration, with limit for initialization. BD fix imposes Langevin dynamics.
# 	Fix 3 is a restoring force to maintain fluid speed in the channel, applied only in the upper channel.
# 	Fixes 2, 4-16 are wall LJ potentials.

fix 1 all nve/limit 0.05
fix bd all langevin ${temperature} ${temperature} 10.0 4578
fix 2 all wall/region plates lj126 ${wall_coefficient} ${wall_radius} ${lj_cutoff}
fix 3 all addforce v_diff 0 0 region flow
fix 4 all wall/region block1 lj126 ${wall_coefficient} ${wall_radius} ${lj_cutoff}
fix 5 all wall/region block2 lj126 ${wall_coefficient} ${wall_radius} ${lj_cutoff}
fix 6 all wall/region block3 lj126 ${wall_coefficient} ${wall_radius} ${lj_cutoff}
fix 7 all wall/region block4 lj126 ${wall_coefficient} ${wall_radius} ${lj_cutoff}
fix 8 all wall/region block5 lj126 ${wall_coefficient} ${wall_radius} ${lj_cutoff}
fix 9 all wall/region block6 lj126 ${wall_coefficient} ${wall_radius} ${lj_cutoff}
fix 10 all wall/region block7 lj126 ${wall_coefficient} ${wall_radius} ${lj_cutoff}
fix 11 all wall/region block8 lj126 ${wall_coefficient} ${wall_radius} ${lj_cutoff}
fix 12 all wall/region block9 lj126 ${wall_coefficient} ${wall_radius} ${lj_cutoff}
fix 13 all wall/region block10 lj126 ${wall_coefficient} ${wall_radius} ${lj_cutoff}
fix 14 all wall/region block11 lj126 ${wall_coefficient} ${wall_radius} ${lj_cutoff}
fix 15 all wall/region block12 lj126 ${wall_coefficient} ${wall_radius} ${lj_cutoff}
fix 16 all wall/region block13 lj126 ${wall_coefficient} ${wall_radius} ${lj_cutoff}


# SEC: This section runs the simulation.

# 	Simulation timestep (LJ time units).
timestep 0.001

# 	How often to output thermo data and first run phase.
thermo ${dump_interval}
run 5000

# 	Release limit on integrator and run full simulation.
# 	Fixes 17-20 dump the computes at specified short intervals.
# 	Dump 1 is a full simulation dump at the specified interval.

unfix 1
fix 1 all nve
fix 17 all ave/time 5 10 50 c_xpos file xpos.out
fix 18 all ave/time 5 10 50 c_xsq[0] file xsq.out
fix 19 all ave/time 5 10 50 c_xmin file xmin.out
fix 20 all ave/time 5 10 50 c_xmax file xmax.out
dump 1 all atom ${dump_interval} polymer.lammpstrj
run ${run_length}
